(set-logic ALL)
(declare-fun i1 () Int)
(declare-fun it1238 () Int)
(declare-fun it1239 () Int)
(declare-fun i2 () Int)
(declare-fun i3 () Int)
(declare-fun it1240 () Int)
(declare-fun i4 () Int)
(declare-fun it1241 () Int)
(declare-fun it1242 () Int)
(declare-fun i5 () Int)
(declare-fun i6 () Int)
(declare-fun it1243 () Int)
(declare-fun i7 () Int)
(declare-fun it1244 () Int)
(declare-fun it1245 () Int)
(declare-fun it1246 () Int)
(declare-fun it1247 () Int)
(declare-fun it1248 () Int)
(declare-fun it1249 () Int)
(declare-fun it1250 () Int)
(declare-fun it1251 () Int)
(declare-fun it1520 () Int)
(declare-fun it1521 () Int)
(declare-fun it1522 () Int)
(declare-fun it1523 () Int)
(declare-fun it1524 () Int)
(declare-fun it1525 () Int)
(declare-fun it1526 () Int)
(declare-fun it1527 () Int)
(declare-fun it1528 () Int)
(declare-fun it1529 () Int)
(declare-fun it1530 () Int)
(declare-fun it1531 () Int)
(declare-fun it1532 () Int)
(declare-fun it1533 () Int)
(declare-fun it1536 () Int)
(declare-fun it1537 () Int)
(declare-fun it1538 () Int)
(declare-fun it1539 () Int)
(declare-fun it1540 () Int)
(declare-fun it1541 () Int)
(declare-fun it1542 () Int)
(declare-fun it1543 () Int)
(declare-fun it1544 () Int)
(declare-fun it1545 () Int)
(declare-fun it1546 () Int)
(declare-fun it1547 () Int)
(declare-fun it1548 () Int)
(declare-fun it1549 () Int)
(declare-fun it1550 () Int)
(declare-fun it1551 () Int)
(declare-fun it1552 () Int)
(declare-fun it1553 () Int)
(declare-fun it1554 () Int)
(declare-fun it1555 () Int)
(declare-fun it1556 () Int)
(declare-fun it1089 () Int)
(assert (= (+ i1 (- 1)) 0))
(assert (= (+ it1238 (- 5)) 0))
(assert (= (+ (* i2 (- 1)) it1239 (- 4)) 0))
(assert (= (+ it1240 (* i3 (- 1))) 0))
(assert (= (+ it1241 (* i4 (- 1))) 0))
(assert (= (+ (* i5 (- 1)) it1242) 0))
(assert (= (+ it1243 (* i6 (- 1))) 0))
(assert (= (+ it1244 (* i7 (- 1))) 0))
(assert (and (= (+ it1238 (- 5)) 0) (> (+ it1241 (- 2)) 0)))
(assert (= (+ it1245 (- 18)) 0))
(assert (= (+ (* it1239 (- 1)) it1246 (- 12)) 0))
(assert (= (+ (* it1240 (- 1)) it1247) 0))
(assert (= (+ (* it1241 (- 1)) it1248) 0))
(assert (= (+ it1249 (* it1242 (- 1))) 0))
(assert (= it1250 0))
(assert (= (+ (* it1244 (- 1)) it1251) 0))
(assert (let ((a!1 (>= (+ (+ (* it1250 (- 1)) it1248) (- 3)) 0))
      (a!2 (> (+ (+ (* it1250 (- 1)) it1248) (- 3)) 0))
      (a!3 (>= (+ (+ (* it1250 (- 1)) it1248) (- 2)) 0))
      (a!4 (>= (+ (+ (* it1250 (- 1)) it1248) (- 4)) 0)))
  (and (> 1 0)
       (>= (+ (* it1245 (- 1)) 18) 0)
       a!1
       a!2
       a!3
       (>= (+ it1245 (- 18)) 0)
       a!4
       (> (+ it1250 it1248 3) 0))))
(assert (= (+ it1520 (* it1245 (- 1))) 0))
(assert (= (+ (* it1250 11) (* it1248 (- 11)) it1521 (* it1246 (- 1)) 33) 0))
(assert (= (+ it1522 (* it1248 (- 1)) 3) 0))
(assert (= (+ it1523 (* it1248 (- 1))) 0))
(assert (= (+ (* it1248 (- 1)) it1524) 0))
(assert (= (+ it1525 (* it1248 (- 1)) 3) 0))
(assert (= (+ it1526 (- 2)) 0))
(assert (and (<= (+ it1525 (* it1523 (- 1)) 2) 0) (= (+ it1520 (- 18)) 0)))
(assert (= (+ it1527 (- 20)) 0))
(assert (= (+ (* it1521 (- 1)) it1528 (- 2)) 0))
(assert (= (+ (* it1522 (- 1)) it1529) 0))
(assert (= (+ (* it1523 (- 1)) it1530) 0))
(assert (= it1531 0))
(assert (= (+ (* it1525 (- 1)) it1532) 0))
(assert (= (+ (* it1526 (- 1)) it1533) 0))
(assert (and (<= (+ it1532 (* it1530 (- 1)) (* it1531 2) 3) 0) (= (+ it1527 (- 20)) 0)))
(assert (= (+ it1536 (- 21)) 0))
(assert (= (+ it1537 (* it1528 (- 1)) (- 1)) 0))
(assert (= (+ it1538 (* it1529 (- 1))) 0))
(assert (= (+ it1539 (* it1530 (- 1))) 0))
(assert (= (+ it1540 (* it1531 (- 1))) 0))
(assert (= (+ it1541 (* it1532 (- 1))) 0))
(assert (= (+ it1542 (* it1533 (- 1))) 0))
(assert (and (= (+ it1536 (- 21)) 0) (= (+ it1541 (* it1539 (- 1)) (* it1540 2) 3) 0)))
(assert (= (+ it1543 (- 26)) 0))
(assert (= (+ it1544 (* it1537 (- 1)) (- 2)) 0))
(assert (= (+ (* it1538 (- 1)) it1545) 0))
(assert (= (+ (* it1539 (- 1)) it1546) 0))
(assert (= (+ (* it1540 (- 1)) it1547) 0))
(assert (= (+ (* it1541 (- 1)) it1548) 0))
(assert (= (+ it1549 (* it1540 (- 2)) (- 1)) 0))
(assert (= (+ it1543 (- 26)) 0))
(assert (= (+ it1550 (- 20)) 0))
(assert (= (+ (* it1544 (- 1)) it1551 (- 1)) 0))
(assert (= (+ (* it1545 (- 1)) it1552) 0))
(assert (= (+ (* it1546 (- 1)) it1553) 0))
(assert (= (+ it1554 (* it1546 (- 1))) 0))
(assert (= (+ (* it1548 (- 1)) it1555) 0))
(assert (= (+ (* it1549 (- 1)) it1556) 0))
(assert (let ((a!1 (+ (+ 0 (* it1555 (- 1)))
              (* (exp 2 (+ it1089 (- 1))) (+ 0 (- 2)))
              (* (+ 0 it1554) (exp 2 (+ it1089 (- 1))) (+ 0 (- 2)))
              (+ 0 it1553)
              (+ 0 (- 1)))))
  (and (>= a!1 (+ 0 0))
       (> (+ (* it1554 (- 2)) (* it1555 (- 1)) it1553 (- 3)) 0)
       (>= (+ (* it1554 (- 2)) (* it1555 (- 1)) it1553 (- 3)) 0)
       (> a!1 (+ 0 0))
       (>= (+ (* it1550 (- 1)) 20) 0)
       (>= (+ it1550 (- 20)) 0)
       (>= (+ it1089 (- 1)) 0))))
(check-sat)
